129
10000
2056
413
1189
900
2207
520
685
2416
1305
1362
2120
588
673
1390
462
497
1295
1228
2057
877
2066
2273
434
1473
1830
1168
355
679
1532
188
179
811
123
1467
667
2144
2301
2149
13
391
1597
344
1956
1868
13
1926
148
841
2459
1149
168
1728
1585
596
769
81
949
242
238
2422
1111
26
1382
903
2033
1298
1898
1736
1540
2
1813
204
2381
153
2383
1063
1913
1306
1466
558
186
398
1660
413
361
896
1155
402
531
2073
688
942
2145
2480
2444
2246
2167
1110
962
1156
122
228
1227
450
2400
1563
245
107
907
786
207
2475
1312
2310
478
805
1963
1673
749
6
516
1750
2231
27
539
2477
1895
2419
987
